Data path: /scratch/opt/lxu/CFLG/benchmarks/random_B
Instance: r_30_0.2_75.txt
Result path: /scratch/opt/lxu/CFLG/results/random_B
Solver: Gurobi
Time limit: 7200
Formulation: LEFP
Cover: Large
julia --project=. src/main.jl /scratch/opt/lxu/CFLG/benchmarks/random_B r_30_0.2_75.txt /scratch/opt/lxu/CFLG/results/random_B Gurobi 7200 LEFP Large
The latest version of Julia in the `release` channel is 1.11.5+0.x64.linux.gnu. You currently have `1.11.4+0.x64.linux.gnu` installed. Run:

  juliaup update

in your terminal shell to install Julia 1.11.5+0.x64.linux.gnu and update the `release` channel to that version.
/scratch/opt/lxu/CFLG/benchmarks/random_B Gurobi 7200.0 /scratch/opt/lxu/CFLG/results/random_B r_30_0.2_75.txt LEFP Large
/scratch/opt/lxu/CFLG/benchmarks/random_B/r_30_0.2_75.txt

 read graph
data loaded

problem_graph/original graph: node: 30/30 edge: 75/75 dlt: 1.338331712771451 break_avg_len: 0.6691658563857255 break_max_len: 0.9947526277799718Set parameter TokenServer to value "solice01.zib.de"
Set parameter Threads to value 1
Set parameter OutputFlag to value 1
Gurobi Optimizer version 12.0.1 build v12.0.1rc0 (linux64 - "Debian GNU/Linux 12 (bookworm)")

CPU model: Intel(R) Xeon(R) Gold 5122 CPU @ 3.60GHz, instruction set [SSE2|AVX|AVX2|AVX512]
Thread count: 8 physical cores, 16 logical processors, using up to 1 threads

Non-default parameters:
Threads  1

Optimize a model with 105 rows, 225 columns and 375 nonzeros
Model fingerprint: 0xdc7b3391
Coefficient statistics:
  Matrix range     [1e+00, 1e+00]
  Objective range  [1e+00, 1e+00]
  Bounds range     [1e+00, 1e+00]
  RHS range        [0e+00, 0e+00]
Presolve removed 105 rows and 225 columns
Presolve time: 0.02s
Presolve: All rows and columns removed
Iteration    Objective       Primal Inf.    Dual Inf.      Time
       0   -0.0000000e+00   0.000000e+00   0.000000e+00      0s

Solved in 0 iterations and 0.02 seconds (0.00 work units)
Optimal objective -0.000000000e+00

User-callback calls 35, time in user-callback 0.01 sec
elapsed CPU time: 1.243766 seconds
Set parameter TokenServer to value "solice01.zib.de"
Set parameter Threads to value 1
Set parameter OutputFlag to value 1
Set parameter MIPGap to value 0.0001
Set parameter MIPGapAbs to value 0.999998
Set parameter TimeLimit to value 7198.756234

 more cuts:falsefalse
0 0
formulation:LEFP0 75 30

 model loaded

Gurobi Optimizer version 12.0.1 build v12.0.1rc0 (linux64 - "Debian GNU/Linux 12 (bookworm)")

CPU model: Intel(R) Xeon(R) Gold 5122 CPU @ 3.60GHz, instruction set [SSE2|AVX|AVX2|AVX512]
Thread count: 8 physical cores, 16 logical processors, using up to 1 threads

Non-default parameters:
TimeLimit  7198.756234
MIPGapAbs  0.999998
Threads  1

Optimize a model with 5374 rows, 2705 columns and 15897 nonzeros
Model fingerprint: 0xc0a5d82d
Variable types: 180 continuous, 2525 integer (2525 binary)
Coefficient statistics:
  Matrix range     [1e-06, 2e+00]
  Objective range  [1e+00, 1e+00]
  Bounds range     [3e-01, 1e+00]
  RHS range        [3e-01, 8e+00]
Found heuristic solution: objective 25.0000000
Presolve removed 896 rows and 110 columns
Presolve time: 0.05s
Presolved: 4478 rows, 2595 columns, 14764 nonzeros
Variable types: 105 continuous, 2490 integer (2490 binary)

Root relaxation: objective 6.664277e-01, 2198 iterations, 0.07 seconds (0.13 work units)

    Nodes    |    Current Node    |     Objective Bounds      |     Work
 Expl Unexpl |  Obj  Depth IntInf | Incumbent    BestBd   Gap | It/Node Time

     0     0    0.66643    0  261   25.00000    0.66643  97.3%     -    0s
H    0     0                      12.0000000    0.66643  94.4%     -    0s
H    0     0                       7.0000000    0.66643  90.5%     -    0s
     0     0    1.10616    0  269    7.00000    1.10616  84.2%     -    0s
H    0     0                       6.0000000    1.11146  81.5%     -    0s
     0     0    1.31508    0  325    6.00000    1.31508  78.1%     -    0s
     0     0    1.31579    0  347    6.00000    1.31579  78.1%     -    0s
     0     0    1.44486    0  382    6.00000    1.44486  75.9%     -    0s
H    0     0                       5.0000000    1.44598  71.1%     -    0s
     0     0    1.47084    0  316    5.00000    1.47084  70.6%     -    0s
     0     0    1.47362    0  354    5.00000    1.47362  70.5%     -    0s
     0     0    1.47466    0  315    5.00000    1.47466  70.5%     -    0s
     0     0    1.47467    0  330    5.00000    1.47467  70.5%     -    0s
     0     0    1.69874    0  329    5.00000    1.69874  66.0%     -    1s
     0     0    1.71368    0  372    5.00000    1.71368  65.7%     -    1s
     0     0    1.73085    0  321    5.00000    1.73085  65.4%     -    1s
     0     0    1.73527    0  362    5.00000    1.73527  65.3%     -    1s
     0     0    1.73634    0  369    5.00000    1.73634  65.3%     -    1s
     0     0    1.73634    0  369    5.00000    1.73634  65.3%     -    1s
     0     0    1.82669    0  330    5.00000    1.82669  63.5%     -    1s
     0     0    1.86331    0  339    5.00000    1.86331  62.7%     -    1s
     0     0    1.86375    0  367    5.00000    1.86375  62.7%     -    1s
     0     0    1.86384    0  376    5.00000    1.86384  62.7%     -    1s
     0     0    1.87051    0  347    5.00000    1.87051  62.6%     -    1s
     0     0    1.87245    0  348    5.00000    1.87245  62.6%     -    1s
     0     0    1.87246    0  349    5.00000    1.87246  62.6%     -    1s
     0     0    1.87277    0  352    5.00000    1.87277  62.5%     -    1s
     0     0    1.87452    0  352    5.00000    1.87452  62.5%     -    1s
     0     0    1.87452    0  350    5.00000    1.87452  62.5%     -    1s
     0     0    1.88082    0  287    5.00000    1.88082  62.4%     -    1s
     0     2    1.88085    0  264    5.00000    1.88085  62.4%     -    2s
   296   249    2.46875    4  123    5.00000    1.98554  60.3%  70.3    5s
   588   473    2.31148    7  296    5.00000    2.01624  59.7%  67.3   10s
   601   482    3.00000   16  419    5.00000    2.05420  58.9%  65.8   15s
   626   500    2.58065   18  145    5.00000    2.16667  56.7%   131   20s
   780   542    3.21512   21   70    5.00000    2.40984  51.8%   167   25s
H  846   443                       4.0000000    2.42105  39.5%   173   27s
   914   441     cutoff   27         4.00000    2.43750  39.1%   186   30s
  1075   412    2.96121   24  175    4.00000    2.52550  36.9%   194   35s
  1195   405    3.00000   15   95    4.00000    2.54674  36.3%   201   40s
  1369   376    3.00000   24  159    4.00000    2.65385  33.7%   202   45s
  1581   270     cutoff   19         4.00000    3.00000  25.0%   199   50s
  1769   132     cutoff   27         4.00000    3.00000  25.0%   202   55s

Cutting planes:
  Cover: 27
  Implied bound: 4
  MIR: 22
  StrongCG: 4
  Flow cover: 34
  GUB cover: 54
  Zero half: 23
  RLT: 11
  Relax-and-lift: 5

Explored 1886 nodes (406443 simplex iterations) in 59.21 seconds (73.77 work units)
Thread count was 1 (of 16 available processors)

Solution count 7: 4 5 6 ... 25

Optimal solution found (tolerance 1.00e-04)
Best objective 4.000000000000e+00, best bound 4.000000000000e+00, gap 0.0000%

User-callback calls 19142, time in user-callback 0.02 sec

 sepatime0
4.0Stat(MathOptInterface.OPTIMAL, 4.0, 4.0, 0.0, 0.0, 1.243766, 59.21399807929993, 1886, Main.CFLG.LEFP, "", #undef)
